 K Mn  O                                
    1.000000000000000     
    14.7898786789740520   -0.0011884281948208   -0.3344711663185130
    -0.0009181548620256    8.5584051502937477   -0.0007800839371675
    -4.2720659550789337   -0.0000340069252679   14.9710202508208994
   K    Mn   O 
     1    54   108
Direct
     0.5018534585072225    0.6678210762608362    0.3337730371393746
     0.9934622107042732    0.3322806535795917    0.1500187902259267
     0.1583782544932208    0.1661490202535240    0.1454054888441144
     0.0062081714901163    0.3335085804531971    0.5130366418661317
     0.1731611094626329    0.1670647913632258    0.5143925420841966
     0.9995455007495988    0.3321799692837860    0.8342068341830604
     0.1653880138149632    0.1656103354565630    0.8316189514223581
     0.9934921142448482    0.6655551698777521    0.1498999184336506
     0.1583793974566192    0.4992451059829587    0.1448145428287761
     0.0058388016412872    0.6672637173980657    0.5154584925227319
     0.1729563772696410    0.5005924855646828    0.5168452022323679
     0.9999097915559275    0.6656299810928299    0.8346137140500688
     0.1653462297393452    0.4986756238977354    0.8315397256319286
     0.9934924887717478    0.9991052498810864    0.1499902675310720
     0.1581122992710346    0.8325541938734922    0.1450568014762132
     0.0059961328398325    0.0004738329501667    0.5128209448774033
     0.1728626398800218    0.8338618424038823    0.5161108092936973
     0.9998903932992456    0.9987300458660808    0.8345405458377895
     0.1659344996222636    0.8323174885996583    0.8322061323966492
     0.3219652559655576    0.3317990738609596    0.1357717993761111
     0.4883316424626736    0.1655278463109866    0.1333960386080341
     0.3425897534108946    0.3331592236355856    0.5259113774437086
     0.5118451091809191    0.1671919293766191    0.5333994710749069
     0.3325439742130280    0.3321889429496036    0.8331379578485412
     0.5000219376360040    0.1656244732047165    0.8352305548323063
     0.3202961188659429    0.6659646599759952    0.1307994019551166
     0.4872640058912647    0.4978781996896308    0.1278962909749610
     0.3425640118894968    0.6663620909904098    0.5285973102615674
     0.5133688562170707    0.4988987270175438    0.5392941937410947
     0.3324894138814284    0.6655535279566664    0.8331166753952823
     0.5000012041778619    0.4987506635831249    0.8352563996079051
     0.3214702292453426    0.9993020829972378    0.1353900553868505
     0.4872746227117138    0.8334466653848316    0.1279491586702904
     0.3424901116238756    0.9997496974342983    0.5253591875391829
     0.5133626131807777    0.8346658351294394    0.5393577954719977
     0.3325092575648463    0.9991843396814551    0.8330370401756492
     0.4994916934452215    0.8325106787457807    0.8345975738979615
     0.6573076801156829    0.3320488092957485    0.1400342830305416
     0.8261285477018665    0.1655150541900557    0.1479727923779655
     0.6790300392543348    0.3337509821929733    0.5317109266182675
     0.8418423145574619    0.1675048794445108    0.5207840320081325
     0.6673215244597580    0.3323928484957257    0.8370176556406530
     0.8337293434851628    0.1659296744461516    0.8348342343622794
     0.6575681569409276    0.6656634224197367    0.1370057162508538
     0.8262074270436619    0.4986478925410650    0.1476345735117473
     0.6807486265617114    0.6676503983947792    0.5372009206695902
     0.8419603093267102    0.5004603801936595    0.5213172768294270
     0.6670315745331205    0.6660725461143312    0.8364829008371067
     0.8338964580344923    0.4987450192967646    0.8351636343762605
     0.6573864057097871    0.9984526951227393    0.1401530057693311
     0.8266790728999638    0.8323017780549845    0.1481782119492934
     0.6788094521008380    0.0017084640849660    0.5315076778576494
     0.8418916612361752    0.8341896095289061    0.5214475261347079
     0.6672612719645477    0.9992197822787481    0.8366679860835776
     0.8335259471033210    0.8323246491124695    0.8345595821053220
     0.0704329410875478    0.1658306893003508    0.2130982343730748
     0.2446205335526888    0.1659095224780173    0.0751100866864977
     0.2366684719850748    0.9987569343334360    0.2060418813517151
     0.0818064928479143    0.3322667407898408    0.0831090435564643
     0.0811715797018530    0.1667893543282874    0.5767653600272143
     0.2705878158287771    0.1668310400584097    0.4573029028688504
     0.2460465476389610    0.0011422900255747    0.5821557247128114
     0.0986008749002760    0.3348290072237245    0.4499154773799601
     0.0757336380957852    0.1656583924682582    0.8974613822560301
     0.2573971418954106    0.1656798573422907    0.7683197180867442
     0.2410164012578334    0.9992985386155560    0.8962981796023171
     0.0894844509197928    0.3321852050705855    0.7682648424824606
     0.0707917010018764    0.4991734289809423    0.2128033268124760
     0.2438301528101688    0.4976292829158455    0.0734278768238359
     0.2367417482657459    0.3331019757510484    0.2060246126214930
     0.0817661751521472    0.6658137205557200    0.0829309410664096
     0.0808962950920981    0.4996004384810834    0.5786775364491951
     0.2706099067271448    0.5014362425845612    0.4594333686965694
     0.2461495465493873    0.3325145360576391    0.5825216374746810
     0.0981423895409954    0.6668084722493156    0.4514703141670513
     0.0757439682949100    0.4987371041005573    0.8974693767338114
     0.2574295273385985    0.4989362905595664    0.7683496246466718
     0.2407643206171292    0.3322888127535796    0.8960644155284603
     0.0897903394612032    0.6658536169553709    0.7686020770456111
     0.0706082700506351    0.8322436031382526    0.2130479531010741
     0.2434411113073910    0.8338289896458960    0.0733260806568742
     0.2377181705271399    0.6658206559123173    0.2045301649264442
     0.0818211302930591    0.9993177898828463    0.0832021135646666
     0.0808866482309675    0.8348971554875286    0.5782195906482657
     0.2706686201014346    0.8316212526990703    0.4590434431744689
     0.2458426204498776    0.6673450705214135    0.5841628350565021
     0.0983741791879511    0.9995402875082025    0.4494456091713031
     0.0758695717117061    0.8323004958068335    0.8977119529409449
     0.2574163169889637    0.8323132429285548    0.7684748247937448
     0.2409684222949722    0.6653747178926929    0.8962943797044786
     0.0898068951162502    0.9986582937732030    0.7685776688402852
     0.3984345126102460    0.1655444610952750    0.1986792610374885
     0.5834642422857873    0.1651524678330739    0.0741508361942578
     0.5611199359760803    0.9962791752245050    0.1983694552988171
     0.4114808904158573    0.3303244790098129    0.0684269773340962
     0.4161756364928874    0.1665025967227649    0.5919821037542389
     0.6022132541565858    0.1675447213570395    0.4684248236226873
     0.5889371116880170    0.0029128352107932    0.5986573471096803
     0.4397100722298135    0.3366314682146029    0.4685137056447329
     0.4076020341031620    0.1656566104475172    0.8977273514410584
     0.5920325742019954    0.1659661460553871    0.7723536061342060
     0.5751279690970741    0.9989297983095297    0.8995129932589645
     0.4250932621868151    0.3323073378020326    0.7705131223748077
     0.3986590059244673    0.5010228924914857    0.1958127827921314
     0.5836172381185614    0.4975187611033548    0.0710503890180216
     0.5610928630488776    0.3347838510868565    0.1981563014980544
     0.4110482558279822    0.6657928604104868    0.0653226337208242
     0.4160602362886233    0.4984564884279886    0.5952466318634350
     0.6024850108634695    0.5025385698771515    0.4720264682594879
     0.5890821939914553    0.3315567413851651    0.5988613684137261
     0.4400169926147756    0.6667386964019425    0.4721276806562010
     0.4076112888235928    0.4989440014832884    0.8977997399513883
     0.5918881085096150    0.4987823438391438    0.7722520201941544
     0.5752664400910431    0.3323131462787551    0.8999240165555916
     0.4248666395918659    0.6654466035841856    0.7703221524410464
     0.3984581565799922    0.8309469100163953    0.1956965350728149
     0.5837132683583555    0.8337925852750727    0.0711632175609080
     0.5611832116813519    0.6656865189653592    0.1946818755698175
     0.4113960769536947    0.0007670718346466    0.0683654857975428
     0.4159552365562521    0.8349244019035158    0.5949747850238971
     0.6025083959444066    0.8322333804942541    0.4719669614456538
     0.5896517156771587    0.6672765786366663    0.6022961340887271
     0.4397643297340806    0.9974332470151036    0.4683174747945119
     0.4075742419362681    0.8325139263492262    0.8975670180017650
     0.5917695293881873    0.8327349565852612    0.7719027381407310
     0.5750901409293832    0.6661315352092751    0.8994341115160823
     0.4248264824984331    0.9993420511055879    0.7702137301488718
     0.7302918470603442    0.1656358680117530    0.2072320321812900
     0.9184982375778419    0.1656976135261555    0.0857868542158384
     0.9011852637946562    0.9989927882441406    0.2134154769494475
     0.7525694319758524    0.3318229229804985    0.0814403870537447
     0.7564692041968974    0.1675878584880077    0.5918252604536507
     0.9283269806809746    0.1672203065483474    0.4508814153985023
     0.9192080341281336    0.0011719771274774    0.5816798343085735
     0.7632044492544610    0.3346973528736767    0.4604714182536324
     0.7433054907844966    0.1657216764570246    0.9002145073860628
     0.9240929379998459    0.1655110966733158    0.7702117547861925
     0.9093046072769987    0.9990267579004133    0.8988065147089264
     0.7578291956160799    0.3324897619843115    0.7716846081091211
     0.7296818582505549    0.5002771584363666    0.2058338837031911
     0.9186131924961369    0.4988249831936907    0.0855841807231914
     0.9008301353474399    0.3327476496709963    0.2131175353887672
     0.7533619295064152    0.6659938547758345    0.0804435168136618
     0.7575754190011186    0.4988917401195292    0.5938525939211078
     0.9284831532394886    0.5013362776612591    0.4520324005648084
     0.9192387055350872    0.3336367359542076    0.5817388112604479
     0.7622458004871147    0.6674658694442036    0.4623982445770309
     0.7431249699020889    0.4993933379630885    0.9000935873422716
     0.9241526457882433    0.4989415869126457    0.7703704548804235
     0.9095332002887694    0.3322349785803237    0.8990748020906035
     0.7578346623836509    0.6654278281458458    0.7714634728153626
     0.7298973170371935    0.8307178459561134    0.2061780029268878
     0.9187385908103941    0.8324168124395114    0.0858345686523084
     0.9010304947942097    0.6654088655012184    0.2130966081859406
     0.7528050691612392    0.9989911035119775    0.0818380464752723
     0.7575011648130783    0.8362111074127079    0.5938812437598243
     0.9282506204947015    0.8327159993456347    0.4519091056305747
     0.9186444752571348    0.6673101873806796    0.5830834005361697
     0.7632325341074553    0.0002676757448550    0.4605127923614841
     0.7429870223162216    0.8324403563231239    0.8998205061535680
     0.9242341519814026    0.8321963969157373    0.7703305347935118
     0.9093888989330591    0.6658386053646722    0.8989539801730240
     0.7577231907689739    0.9993000276687437    0.7714234158242924
 
  0.00000000E+00  0.00000000E+00  0.00000000E+00
  0.00000000E+00  0.00000000E+00  0.00000000E+00
  0.00000000E+00  0.00000000E+00  0.00000000E+00
  0.00000000E+00  0.00000000E+00  0.00000000E+00
  0.00000000E+00  0.00000000E+00  0.00000000E+00
  0.00000000E+00  0.00000000E+00  0.00000000E+00
  0.00000000E+00  0.00000000E+00  0.00000000E+00
  0.00000000E+00  0.00000000E+00  0.00000000E+00
  0.00000000E+00  0.00000000E+00  0.00000000E+00
  0.00000000E+00  0.00000000E+00  0.00000000E+00
  0.00000000E+00  0.00000000E+00  0.00000000E+00
  0.00000000E+00  0.00000000E+00  0.00000000E+00
  0.00000000E+00  0.00000000E+00  0.00000000E+00
  0.00000000E+00  0.00000000E+00  0.00000000E+00
  0.00000000E+00  0.00000000E+00  0.00000000E+00
  0.00000000E+00  0.00000000E+00  0.00000000E+00
  0.00000000E+00  0.00000000E+00  0.00000000E+00
  0.00000000E+00  0.00000000E+00  0.00000000E+00
  0.00000000E+00  0.00000000E+00  0.00000000E+00
  0.00000000E+00  0.00000000E+00  0.00000000E+00
  0.00000000E+00  0.00000000E+00  0.00000000E+00
  0.00000000E+00  0.00000000E+00  0.00000000E+00
  0.00000000E+00  0.00000000E+00  0.00000000E+00
  0.00000000E+00  0.00000000E+00  0.00000000E+00
  0.00000000E+00  0.00000000E+00  0.00000000E+00
  0.00000000E+00  0.00000000E+00  0.00000000E+00
  0.00000000E+00  0.00000000E+00  0.00000000E+00
  0.00000000E+00  0.00000000E+00  0.00000000E+00
  0.00000000E+00  0.00000000E+00  0.00000000E+00
  0.00000000E+00  0.00000000E+00  0.00000000E+00
  0.00000000E+00  0.00000000E+00  0.00000000E+00
  0.00000000E+00  0.00000000E+00  0.00000000E+00
  0.00000000E+00  0.00000000E+00  0.00000000E+00
  0.00000000E+00  0.00000000E+00  0.00000000E+00
  0.00000000E+00  0.00000000E+00  0.00000000E+00
  0.00000000E+00  0.00000000E+00  0.00000000E+00
  0.00000000E+00  0.00000000E+00  0.00000000E+00
  0.00000000E+00  0.00000000E+00  0.00000000E+00
  0.00000000E+00  0.00000000E+00  0.00000000E+00
  0.00000000E+00  0.00000000E+00  0.00000000E+00
  0.00000000E+00  0.00000000E+00  0.00000000E+00
  0.00000000E+00  0.00000000E+00  0.00000000E+00
  0.00000000E+00  0.00000000E+00  0.00000000E+00
  0.00000000E+00  0.00000000E+00  0.00000000E+00
  0.00000000E+00  0.00000000E+00  0.00000000E+00
  0.00000000E+00  0.00000000E+00  0.00000000E+00
  0.00000000E+00  0.00000000E+00  0.00000000E+00
  0.00000000E+00  0.00000000E+00  0.00000000E+00
  0.00000000E+00  0.00000000E+00  0.00000000E+00
  0.00000000E+00  0.00000000E+00  0.00000000E+00
  0.00000000E+00  0.00000000E+00  0.00000000E+00
  0.00000000E+00  0.00000000E+00  0.00000000E+00
  0.00000000E+00  0.00000000E+00  0.00000000E+00
  0.00000000E+00  0.00000000E+00  0.00000000E+00
  0.00000000E+00  0.00000000E+00  0.00000000E+00
  0.00000000E+00  0.00000000E+00  0.00000000E+00
  0.00000000E+00  0.00000000E+00  0.00000000E+00
  0.00000000E+00  0.00000000E+00  0.00000000E+00
  0.00000000E+00  0.00000000E+00  0.00000000E+00
  0.00000000E+00  0.00000000E+00  0.00000000E+00
  0.00000000E+00  0.00000000E+00  0.00000000E+00
  0.00000000E+00  0.00000000E+00  0.00000000E+00
  0.00000000E+00  0.00000000E+00  0.00000000E+00
  0.00000000E+00  0.00000000E+00  0.00000000E+00
  0.00000000E+00  0.00000000E+00  0.00000000E+00
  0.00000000E+00  0.00000000E+00  0.00000000E+00
  0.00000000E+00  0.00000000E+00  0.00000000E+00
  0.00000000E+00  0.00000000E+00  0.00000000E+00
  0.00000000E+00  0.00000000E+00  0.00000000E+00
  0.00000000E+00  0.00000000E+00  0.00000000E+00
  0.00000000E+00  0.00000000E+00  0.00000000E+00
  0.00000000E+00  0.00000000E+00  0.00000000E+00
  0.00000000E+00  0.00000000E+00  0.00000000E+00
  0.00000000E+00  0.00000000E+00  0.00000000E+00
  0.00000000E+00  0.00000000E+00  0.00000000E+00
  0.00000000E+00  0.00000000E+00  0.00000000E+00
  0.00000000E+00  0.00000000E+00  0.00000000E+00
  0.00000000E+00  0.00000000E+00  0.00000000E+00
  0.00000000E+00  0.00000000E+00  0.00000000E+00
  0.00000000E+00  0.00000000E+00  0.00000000E+00
  0.00000000E+00  0.00000000E+00  0.00000000E+00
  0.00000000E+00  0.00000000E+00  0.00000000E+00
  0.00000000E+00  0.00000000E+00  0.00000000E+00
  0.00000000E+00  0.00000000E+00  0.00000000E+00
  0.00000000E+00  0.00000000E+00  0.00000000E+00
  0.00000000E+00  0.00000000E+00  0.00000000E+00
  0.00000000E+00  0.00000000E+00  0.00000000E+00
  0.00000000E+00  0.00000000E+00  0.00000000E+00
  0.00000000E+00  0.00000000E+00  0.00000000E+00
  0.00000000E+00  0.00000000E+00  0.00000000E+00
  0.00000000E+00  0.00000000E+00  0.00000000E+00
  0.00000000E+00  0.00000000E+00  0.00000000E+00
  0.00000000E+00  0.00000000E+00  0.00000000E+00
  0.00000000E+00  0.00000000E+00  0.00000000E+00
  0.00000000E+00  0.00000000E+00  0.00000000E+00
  0.00000000E+00  0.00000000E+00  0.00000000E+00
  0.00000000E+00  0.00000000E+00  0.00000000E+00
  0.00000000E+00  0.00000000E+00  0.00000000E+00
  0.00000000E+00  0.00000000E+00  0.00000000E+00
  0.00000000E+00  0.00000000E+00  0.00000000E+00
  0.00000000E+00  0.00000000E+00  0.00000000E+00
  0.00000000E+00  0.00000000E+00  0.00000000E+00
  0.00000000E+00  0.00000000E+00  0.00000000E+00
  0.00000000E+00  0.00000000E+00  0.00000000E+00
  0.00000000E+00  0.00000000E+00  0.00000000E+00
  0.00000000E+00  0.00000000E+00  0.00000000E+00
  0.00000000E+00  0.00000000E+00  0.00000000E+00
  0.00000000E+00  0.00000000E+00  0.00000000E+00
  0.00000000E+00  0.00000000E+00  0.00000000E+00
  0.00000000E+00  0.00000000E+00  0.00000000E+00
  0.00000000E+00  0.00000000E+00  0.00000000E+00
  0.00000000E+00  0.00000000E+00  0.00000000E+00
  0.00000000E+00  0.00000000E+00  0.00000000E+00
  0.00000000E+00  0.00000000E+00  0.00000000E+00
  0.00000000E+00  0.00000000E+00  0.00000000E+00
  0.00000000E+00  0.00000000E+00  0.00000000E+00
  0.00000000E+00  0.00000000E+00  0.00000000E+00
  0.00000000E+00  0.00000000E+00  0.00000000E+00
  0.00000000E+00  0.00000000E+00  0.00000000E+00
  0.00000000E+00  0.00000000E+00  0.00000000E+00
  0.00000000E+00  0.00000000E+00  0.00000000E+00
  0.00000000E+00  0.00000000E+00  0.00000000E+00
  0.00000000E+00  0.00000000E+00  0.00000000E+00
  0.00000000E+00  0.00000000E+00  0.00000000E+00
  0.00000000E+00  0.00000000E+00  0.00000000E+00
  0.00000000E+00  0.00000000E+00  0.00000000E+00
  0.00000000E+00  0.00000000E+00  0.00000000E+00
  0.00000000E+00  0.00000000E+00  0.00000000E+00
  0.00000000E+00  0.00000000E+00  0.00000000E+00
  0.00000000E+00  0.00000000E+00  0.00000000E+00
  0.00000000E+00  0.00000000E+00  0.00000000E+00
  0.00000000E+00  0.00000000E+00  0.00000000E+00
  0.00000000E+00  0.00000000E+00  0.00000000E+00
  0.00000000E+00  0.00000000E+00  0.00000000E+00
  0.00000000E+00  0.00000000E+00  0.00000000E+00
  0.00000000E+00  0.00000000E+00  0.00000000E+00
  0.00000000E+00  0.00000000E+00  0.00000000E+00
  0.00000000E+00  0.00000000E+00  0.00000000E+00
  0.00000000E+00  0.00000000E+00  0.00000000E+00
  0.00000000E+00  0.00000000E+00  0.00000000E+00
  0.00000000E+00  0.00000000E+00  0.00000000E+00
  0.00000000E+00  0.00000000E+00  0.00000000E+00
  0.00000000E+00  0.00000000E+00  0.00000000E+00
  0.00000000E+00  0.00000000E+00  0.00000000E+00
  0.00000000E+00  0.00000000E+00  0.00000000E+00
  0.00000000E+00  0.00000000E+00  0.00000000E+00
  0.00000000E+00  0.00000000E+00  0.00000000E+00
  0.00000000E+00  0.00000000E+00  0.00000000E+00
  0.00000000E+00  0.00000000E+00  0.00000000E+00
  0.00000000E+00  0.00000000E+00  0.00000000E+00
  0.00000000E+00  0.00000000E+00  0.00000000E+00
  0.00000000E+00  0.00000000E+00  0.00000000E+00
  0.00000000E+00  0.00000000E+00  0.00000000E+00
  0.00000000E+00  0.00000000E+00  0.00000000E+00
  0.00000000E+00  0.00000000E+00  0.00000000E+00
  0.00000000E+00  0.00000000E+00  0.00000000E+00
  0.00000000E+00  0.00000000E+00  0.00000000E+00
  0.00000000E+00  0.00000000E+00  0.00000000E+00
  0.00000000E+00  0.00000000E+00  0.00000000E+00
  0.00000000E+00  0.00000000E+00  0.00000000E+00
  0.00000000E+00  0.00000000E+00  0.00000000E+00
  0.00000000E+00  0.00000000E+00  0.00000000E+00
  0.00000000E+00  0.00000000E+00  0.00000000E+00
