 K Mn  O                                
   1.00000000000000     
    13.4831679247992788   -0.0000002237836813   -0.1133496822273668
    -0.0000000415791188    5.6772192023688834   -0.0000003160241805
    -0.5290225570440521   -0.0000004213217373    9.4073482451936439
   K    Mn   O 
     2    20    40
Direct
  0.7493046684879811  0.2500007974049856  0.1151742862275891
  0.2516204648268063  0.7500005876241209  0.8836759794083724
  0.0022939014381724  0.2500040364569838  0.9998552876958335
  0.5004945356982246  0.4998462011056293  0.0013607436320833
  0.0041581615717450  0.5000682995830275  0.2636550605929771
  0.9964240771075090  0.0001082928269627  0.7357483087518186
  0.5019608319653391  0.2499999975881939  0.2652851944101560
  0.4970184386001820  0.2499999717419414  0.7362655737533691
  0.3404755904940962  0.9992979594357611  0.4810320612661216
  0.6597741367539306  0.4998797698426410  0.5193867162634905
  0.8404639199592318  0.2499982893722597  0.4812450915118794
  0.1602252470235620  0.2499999709476280  0.5202527344124179
  0.9986210834446252  0.7500017756862968  0.9992540774625229
  0.5004945359909336  0.0001539956567615  0.0013607626478802
  0.0041582801941628  0.9999331013220916  0.2636545581624540
  0.9964240657470762  0.4998936319314008  0.7357479402595231
  0.5030259007520324  0.7499998978508465  0.2645596123289802
  0.4997210168400808  0.7499998910214263  0.7374704094302081
  0.3404756284718957  0.5007003584042302  0.4810322200185576
  0.6597739493249450  0.0001134048412267  0.5193865538402902
  0.8399024245462806  0.7499979106461818  0.4796043016638126
  0.1595656310035590  0.7500001635294450  0.5186344205488881
  0.5735677928925369  0.4987098311463115  0.1790191199940473
  0.4275248252947978  0.5014588889731058  0.8231004106452959
  0.0732953323628821  0.2500014400858626  0.1784987877399061
  0.9282357838517619  0.2500015184892660  0.8222876173537612
  0.0927495520044123  0.0006226947945801  0.4247521011627688
  0.9075074876445582  0.9993529276850349  0.5748597429579296
  0.5924779810738091  0.2499981754994952  0.4244410754534406
  0.4080299817684611  0.2499996674590885  0.5758420421750814
  0.7644951807171056  0.4986940379109552  0.3915296352962955
  0.2354240347989416  0.5013635590804311  0.6084312721212423
  0.2651338383147343  0.2499997664354748  0.3954709577547711
  0.7353282482103998  0.2499979841940072  0.6056333965527977
  0.4279436254003864  0.5011256104060458  0.3324980078449225
  0.5723085605803074  0.4986433083871076  0.6681006080632381
  0.9271540982108893  0.2500004432968930  0.3299192027252960
  0.0717713358492075  0.2500006357336270  0.6679456544085209
  0.9290498552199130  0.0023547335796103  0.0808542658539261
  0.0718138736899020  0.9975988173539758  0.9182433645144081
  0.4294810492010213  0.2500001840036946  0.0821819680104141
  0.5717289463829859  0.2500001341988344  0.9200227903031937
  0.5735677811077124  0.0012902094680278  0.1790191832713669
  0.4275248339868448  0.9985410334101935  0.8231003916900195
  0.0723756345452384  0.7500008760353298  0.1772409780276979
  0.9273410167948589  0.7500009334949392  0.8210069368545625
  0.0927495417471493  0.4993776558092108  0.4247521696531465
  0.9075075390018914  0.5006453793421092  0.5748597098106535
  0.5917273299755356  0.7499978268363861  0.4252744796394473
  0.4074775991213500  0.7499996635300352  0.5776497951905584
  0.7644951593102844  0.0013033363809251  0.3915295927497022
  0.2354240665490878  0.9986365002326965  0.6084312668614831
  0.2650212927863446  0.7499997412517173  0.3944228381482374
  0.7351875201773446  0.7499982241418562  0.6048217436761223
  0.4279436973339329  0.9988742015565625  0.3324980530298980
  0.5723084304239048  0.0013556524350900  0.6681004828656423
  0.9283695028302479  0.7500005254537531  0.3313010962611169
  0.0731001440049256  0.7500007970391909  0.6694470035767400
  0.9290495576813710  0.4976491646676019  0.0808543890322382
  0.0718142337372852  0.5024052273617138  0.9182430826728055
  0.4288966453261062  0.7500001672139295  0.0814423841868723
  0.5717462701116627  0.7500001524469914  0.9200154880637778
 
  0.00000000E+00  0.00000000E+00  0.00000000E+00
  0.00000000E+00  0.00000000E+00  0.00000000E+00
  0.00000000E+00  0.00000000E+00  0.00000000E+00
  0.00000000E+00  0.00000000E+00  0.00000000E+00
  0.00000000E+00  0.00000000E+00  0.00000000E+00
  0.00000000E+00  0.00000000E+00  0.00000000E+00
  0.00000000E+00  0.00000000E+00  0.00000000E+00
  0.00000000E+00  0.00000000E+00  0.00000000E+00
  0.00000000E+00  0.00000000E+00  0.00000000E+00
  0.00000000E+00  0.00000000E+00  0.00000000E+00
  0.00000000E+00  0.00000000E+00  0.00000000E+00
  0.00000000E+00  0.00000000E+00  0.00000000E+00
  0.00000000E+00  0.00000000E+00  0.00000000E+00
  0.00000000E+00  0.00000000E+00  0.00000000E+00
  0.00000000E+00  0.00000000E+00  0.00000000E+00
  0.00000000E+00  0.00000000E+00  0.00000000E+00
  0.00000000E+00  0.00000000E+00  0.00000000E+00
  0.00000000E+00  0.00000000E+00  0.00000000E+00
  0.00000000E+00  0.00000000E+00  0.00000000E+00
  0.00000000E+00  0.00000000E+00  0.00000000E+00
  0.00000000E+00  0.00000000E+00  0.00000000E+00
  0.00000000E+00  0.00000000E+00  0.00000000E+00
  0.00000000E+00  0.00000000E+00  0.00000000E+00
  0.00000000E+00  0.00000000E+00  0.00000000E+00
  0.00000000E+00  0.00000000E+00  0.00000000E+00
  0.00000000E+00  0.00000000E+00  0.00000000E+00
  0.00000000E+00  0.00000000E+00  0.00000000E+00
  0.00000000E+00  0.00000000E+00  0.00000000E+00
  0.00000000E+00  0.00000000E+00  0.00000000E+00
  0.00000000E+00  0.00000000E+00  0.00000000E+00
  0.00000000E+00  0.00000000E+00  0.00000000E+00
  0.00000000E+00  0.00000000E+00  0.00000000E+00
  0.00000000E+00  0.00000000E+00  0.00000000E+00
  0.00000000E+00  0.00000000E+00  0.00000000E+00
  0.00000000E+00  0.00000000E+00  0.00000000E+00
  0.00000000E+00  0.00000000E+00  0.00000000E+00
  0.00000000E+00  0.00000000E+00  0.00000000E+00
  0.00000000E+00  0.00000000E+00  0.00000000E+00
  0.00000000E+00  0.00000000E+00  0.00000000E+00
  0.00000000E+00  0.00000000E+00  0.00000000E+00
  0.00000000E+00  0.00000000E+00  0.00000000E+00
  0.00000000E+00  0.00000000E+00  0.00000000E+00
  0.00000000E+00  0.00000000E+00  0.00000000E+00
  0.00000000E+00  0.00000000E+00  0.00000000E+00
  0.00000000E+00  0.00000000E+00  0.00000000E+00
  0.00000000E+00  0.00000000E+00  0.00000000E+00
  0.00000000E+00  0.00000000E+00  0.00000000E+00
  0.00000000E+00  0.00000000E+00  0.00000000E+00
  0.00000000E+00  0.00000000E+00  0.00000000E+00
  0.00000000E+00  0.00000000E+00  0.00000000E+00
  0.00000000E+00  0.00000000E+00  0.00000000E+00
  0.00000000E+00  0.00000000E+00  0.00000000E+00
  0.00000000E+00  0.00000000E+00  0.00000000E+00
  0.00000000E+00  0.00000000E+00  0.00000000E+00
  0.00000000E+00  0.00000000E+00  0.00000000E+00
  0.00000000E+00  0.00000000E+00  0.00000000E+00
  0.00000000E+00  0.00000000E+00  0.00000000E+00
  0.00000000E+00  0.00000000E+00  0.00000000E+00
  0.00000000E+00  0.00000000E+00  0.00000000E+00
  0.00000000E+00  0.00000000E+00  0.00000000E+00
  0.00000000E+00  0.00000000E+00  0.00000000E+00
  0.00000000E+00  0.00000000E+00  0.00000000E+00
