 K Mn  O                                
    1.000000000000000     
    19.4483551049498509   -0.0007735677096061    0.0003643924365821
     0.0035676428131632   19.4517843630256166    0.0010052751813085
     0.0001100344504666    0.0000879031670620    5.6905121487353245
   K    Mn   O 
     1    64   128
Direct
     0.4998782047217882    0.5001249437382539    0.2454680926600670
     0.1661726909253460    0.0761793569471184    0.2506987000147429
     0.3329605736669060    0.4235920323629288    0.2506267789369038
     0.4237905004421107    0.1662533203588390    0.2506237654043634
     0.0761187390949117    0.3338486610568329    0.2507750538901001
     0.4160579287854392    0.3259340789122886    0.0012269477089601
     0.0837741426552568    0.1738573865907627    0.0006878584514732
     0.1736526663384427    0.4163131911361272    0.0003873131310289
     0.3260991062170870    0.0838533401470912    0.0008434430157681
     0.1661649015657667    0.5761846585024950    0.2507713813415748
     0.3337841390381398    0.9238784043660070    0.2506914961316183
     0.4234930869234293    0.6671146902308035    0.2504022871311944
     0.0761330078133751    0.8338406521450676    0.2508226326182048
     0.4162508817389370    0.8263399927149765    0.0004378972997106
     0.0837869775886343    0.6738981859694654    0.0008074555126452
     0.1737705698317436    0.9162979011524770    0.0005405792682992
     0.3258985512228946    0.5840162951857946    0.0011727451415828
     0.6661927987303161    0.0761522537777696    0.2507656121810437
     0.8338513921427509    0.4238816381677444    0.2509114535562389
     0.9237902821600414    0.1662827056839134    0.2505806676125530
     0.5762986231984291    0.3322030972417139    0.2541105007708549
     0.9161681495127184    0.3261383102581783    0.0008327867667230
     0.5837195793872131    0.1736728342048589    0.0005236986106885
     0.6740751781367219    0.4154954348681719    0.0033675967197665
     0.8261471164669170    0.0838403756404559    0.0007495597481185
     0.6669886620271779    0.5763314973812990    0.2508783681061512
     0.8337991327234564    0.9238665451460589    0.2507490234865929
     0.9237880132672820    0.6662973182104879    0.2505483488807098
     0.5761845785469394    0.8338306402685666    0.2505802732028754
     0.9161892467899411    0.8261740501160877    0.0006882432507066
     0.5839197301140457    0.6740303625343853    0.0009019855055053
     0.6738676040730255    0.9162079807562036    0.0007783443401173
     0.8262867234248396    0.5838174753228207    0.0006007323094081
     0.1661719698999164    0.0761794569364251    0.7507072178428398
     0.3337588745735027    0.4240501787667613    0.7510345839944755
     0.4237910193019725    0.1662487512248434    0.7505688000630415
     0.0761211867677511    0.3338524536932269    0.7507714705667117
     0.4160271536149891    0.3259638942108172    0.5013626679403896
     0.0837742736293990    0.1738605790539942    0.5007177127589061
     0.1736864860225974    0.4163018223551793    0.5005438831366144
     0.3260932708384251    0.0838603701929876    0.5008339637826392
     0.1661915151168682    0.5761784365502700    0.7506895233417759
     0.3337779065696208    0.9238999976872718    0.7507506720630902
     0.4239172043158051    0.6663923843170805    0.7506118275983444
     0.0761316905355108    0.8338444526836750    0.7507626823361752
     0.4162135718454776    0.8263322019661734    0.5005710023311114
     0.0838007592660415    0.6738806540811485    0.5007607443233563
     0.1737872413081629    0.9163071739891527    0.5005220722565804
     0.3259637943292591    0.5839032519427805    0.5013082521109450
     0.6661919538327157    0.0761331099239920    0.7507973496553206
     0.8338328102188763    0.4238909531257961    0.7509333009582460
     0.9237913861627636    0.1662809601593254    0.7505575518257352
     0.5759097718211093    0.3338270189773619    0.7527669712614520
     0.9161723350035261    0.3261475681411853    0.5008059436579847
     0.5837058550702013    0.1736065016808276    0.5006456503306317
     0.6740954530938887    0.4158873647885465    0.5027284816977955
     0.8261436642931135    0.0838448623599451    0.5007570081560064
     0.6662138483448541    0.5758882253701243    0.7512639451180599
     0.8338010488697909    0.9238657085777073    0.7507446753645133
     0.9237917852083543    0.6662971970924292    0.7505569749039247
     0.5761892145347001    0.8337834243158454    0.7506024530844370
     0.9161844272653387    0.8261885741156073    0.5006841034834609
     0.5839023380804034    0.6740529687277339    0.5011230167365515
     0.6738702151787367    0.9162018758291927    0.5007863133199445
     0.8262657094823953    0.5838425386269278    0.5007273681994352
     0.1016519626252270    0.0777546669461623    0.0011700557800939
     0.3989514141971958    0.4228472512253837    0.0023457913611103
     0.4223790800484828    0.1019003545682135    0.0011864403845403
     0.0777200292216864    0.3985241808302911    0.0011064027444482
     0.3515010028325418    0.3277884717484304    0.2516065951065330
     0.1482883580685428    0.1723869378488334    0.2511197621950589
     0.1724142418817523    0.3518550934865585    0.2510387204043741
     0.3276576383119809    0.1484495640563342    0.2512089010477810
     0.2291506191403954    0.0819238622035155    0.0012025004824997
     0.2710553626591797    0.4183426770031143    0.0006117142916105
     0.4181741124802048    0.2295520499684995    0.0012763259190120
     0.0818436380296096    0.2710142519523656    0.0012079980007097
     0.4791682405590752    0.3334776136727616    0.2522303741424338
     0.0208197215772419    0.1682899117281016    0.2511242581421333
     0.1685219201090217    0.4793050762721694    0.2509448153677917
     0.3319385989637861    0.0209333376319532    0.2512954220481767
     0.1018132562974393    0.5776304847753921    0.0011521555330536
     0.3984129107958113    0.9223069634203713    0.0011167027614785
     0.4227937228451985    0.6012107130292601    0.0020032689052020
     0.0776032594850428    0.8983634555806724    0.0011210985771875
     0.3517316640018196    0.8276703135669884    0.2510266251884992
     0.1483530135276639    0.6723043992750689    0.2511689486323527
     0.1723143523649434    0.8518101586706389    0.2510994503100520
     0.3276430504927397    0.6485281835591418    0.2512957241379768
     0.2294870787480936    0.5818214848124029    0.0012864448468223
     0.2709078070214085    0.9182614055099767    0.0011573185227404
     0.4180557341578615    0.7290438917317262    0.0004157472757575
     0.0818700818348646    0.7708519028063200    0.0012367751300937
     0.4792127116968907    0.8315596929559241    0.2508791930341745
     0.0208293314114043    0.6681438174184514    0.2511825492486912
     0.1680499509814299    0.9792363505173760    0.2510195610121298
     0.3336487345507862    0.5208681255400301    0.2512761061528873
     0.6015712432704372    0.0777196596310723    0.0011891915127882
     0.8982019986594395    0.4224477168416121    0.0014068181732452
     0.9223129036105268    0.1018032916664351    0.0011299988606363
     0.5772395485921126    0.3983898577532465    0.0049426116516463
     0.8515918987544091    0.3277956388158444    0.2513885505848660
     0.6481802491546219    0.1724072556711748    0.2512195297681328
     0.6723342089092194    0.3510630015873375    0.2537450263622844
     0.8276112378666370    0.1483781881265110    0.2511172646640876
     0.7290494699839710    0.0819657077323936    0.0011691828571379
     0.7705551710334867    0.4182751219378517    0.0020184563030849
     0.9180376283215890    0.2292778501234553    0.0010871993386503
     0.5816662283695594    0.2708834692959779    0.0020558060014566
     0.9791003166565312    0.3320388557559484    0.2513076358697337
     0.5207459575203645    0.1684951319651546    0.2511460299272831
     0.6663813766309027    0.4789871111855002    0.2528501008126545
     0.8318105727081548    0.0209142724559351    0.2512251893651181
     0.6010037654393749    0.5771584783560727    0.0023679809082466
     0.8982876669026807    0.9223695061352630    0.0011719141318925
     0.9222187209810320    0.6017088783916769    0.0011361425880790
     0.5775747250644399    0.8981861972144558    0.0010618782502164
     0.8516536192975279    0.8277275323207880    0.2511786405556258
     0.6484440965438416    0.6722216792623102    0.2512933540433329
     0.6723022677944749    0.8516366132341839    0.2512323115708013
     0.8275001990918011    0.6483082464247132    0.2511717576297387
     0.7289183580037459    0.5817907392373224    0.0008020612980976
     0.7708005260207712    0.9181878041953134    0.0012385615692987
     0.9180436133476857    0.7291531402961697    0.0010425689976739
     0.5818492229958999    0.7705217243444819    0.0012496930672953
     0.9791175597156940    0.8318622454111341    0.2511755500213703
     0.5207647015658877    0.6664974940522910    0.2512393827859295
     0.6680027307245081    0.9791380181928180    0.2512525146787349
     0.8316525965999133    0.5208893391579676    0.2511889367889094
     0.1016506114438641    0.0777525002831504    0.5011666003145167
     0.3989497025867746    0.4228800739779353    0.5004172477731471
     0.4223834585166810    0.1019177480282162    0.5011561539564883
     0.0777340759316863    0.3985139900378702    0.5010207593491719
     0.3516502318510418    0.3280526002395119    0.7516254949824271
     0.1482880733112159    0.1723875559444390    0.7511254493796188
     0.1723748090623754    0.3518419436949068    0.7510311229667515
     0.3276636481095371    0.1484603335023136    0.7511517270516994
     0.2291556683263020    0.0819198406128459    0.5012030824075384
     0.2710949628789678    0.4184834242107822    0.5017929489300311
     0.4183032499197144    0.2295184238988043    0.5011171869747996
     0.0818360201891792    0.2710086031059767    0.5012143825830635
     0.4790364257905333    0.3325375486194302    0.7520113949411904
     0.0208225354189727    0.1682889361515698    0.7511316892213956
     0.1683623737962086    0.4793056680389532    0.7509508009150003
     0.3319320453878485    0.0209404602717770    0.7513118725438301
     0.1018331243212803    0.5776351014651653    0.5011786085131514
     0.3984124784982028    0.9222977391050079    0.5010260942336251
     0.4228375876577637    0.6011976759846382    0.5000508245427366
     0.0776034471543719    0.8983586745214402    0.5011223606469527
     0.3517178038258170    0.8277122752275975    0.7509870800363647
     0.1483691990737395    0.6723011725103711    0.7511354754296136
     0.1723155216175067    0.8518096556378736    0.7510994867629217
     0.3279161173558903    0.6483829177236543    0.7511083916940694
     0.2294223493404926    0.5817270326866840    0.5011026291846803
     0.2708983351630838    0.9182693538056338    0.5011671602616072
     0.4181912996951922    0.7290174060554571    0.5014515252106694
     0.0818623672872711    0.7708573269155646    0.5012444472342095
     0.4792067884769674    0.8317023538881070    0.7509415063840437
     0.0208346256035407    0.6681461880362594    0.7511926037369465
     0.1680493277203794    0.9792338454809327    0.7510191951633012
     0.3325301440230763    0.5209635420521701    0.7515152014803038
     0.6015514114392129    0.0777225716586604    0.5010570492642491
     0.8981987870830778    0.4224542652531778    0.5014874786114567
     0.9223120560612593    0.1018050534724612    0.5011286338893447
     0.5771483972962261    0.3987446778662796    0.5019964105737441
     0.8515716474257864    0.3278032761346734    0.7513111332121584
     0.6482017209918124    0.1723384305419757    0.7511130373399620
     0.6720235829805915    0.3514344039136096    0.7529258457720036
     0.8276112833417182    0.1483788861071978    0.7511296585727908
     0.7290476531123833    0.0819591667128781    0.5012054099023069
     0.7705420911272031    0.4184890498154579    0.5016739438107365
     0.9180333463672614    0.2292770319291849    0.5010917291965579
     0.5815313931790725    0.2708407680248245    0.5042709597868366
     0.9790922686714397    0.3320338249181146    0.7513178838143911
     0.5207335240690747    0.1682380521979951    0.7511710145147219
     0.6675254196230848    0.4788373983399254    0.7534521293921483
     0.8318116892340901    0.0209143097185517    0.7512315165823800
     0.6009786507470459    0.5771645769199991    0.5005585038997215
     0.8982878640402376    0.9223675781018570    0.5011761669458000
     0.9222138732034106    0.6017039559405296    0.5010571819278334
     0.5775740234247534    0.8981967288818087    0.5011086593901297
     0.8516523842888626    0.8277277862860136    0.7511807128293964
     0.6482711872994036    0.6719713560640882    0.7512731777161380
     0.6722988446895845    0.8516244605890698    0.7511904415448071
     0.8275343052968918    0.6483191117816527    0.7510660889167590
     0.7288771129361907    0.5815308903472491    0.5020378162543798
     0.7707956939603190    0.9181907771804682    0.5012334588857538
     0.9180462456655785    0.7291526460462886    0.5010618582520276
     0.5817002194365546    0.7704963834445101    0.5010778556246327
     0.9791179825969557    0.8318630886088287    0.7511811481471483
     0.5208650821918974    0.6676394959844071    0.7514058769236958
     0.6680065455547926    0.9791286941130968    0.7512580350141824
     0.8318103678563041    0.5208834641256267    0.7513083161910176
 
  0.00000000E+00  0.00000000E+00  0.00000000E+00
  0.00000000E+00  0.00000000E+00  0.00000000E+00
  0.00000000E+00  0.00000000E+00  0.00000000E+00
  0.00000000E+00  0.00000000E+00  0.00000000E+00
  0.00000000E+00  0.00000000E+00  0.00000000E+00
  0.00000000E+00  0.00000000E+00  0.00000000E+00
  0.00000000E+00  0.00000000E+00  0.00000000E+00
  0.00000000E+00  0.00000000E+00  0.00000000E+00
  0.00000000E+00  0.00000000E+00  0.00000000E+00
  0.00000000E+00  0.00000000E+00  0.00000000E+00
  0.00000000E+00  0.00000000E+00  0.00000000E+00
  0.00000000E+00  0.00000000E+00  0.00000000E+00
  0.00000000E+00  0.00000000E+00  0.00000000E+00
  0.00000000E+00  0.00000000E+00  0.00000000E+00
  0.00000000E+00  0.00000000E+00  0.00000000E+00
  0.00000000E+00  0.00000000E+00  0.00000000E+00
  0.00000000E+00  0.00000000E+00  0.00000000E+00
  0.00000000E+00  0.00000000E+00  0.00000000E+00
  0.00000000E+00  0.00000000E+00  0.00000000E+00
  0.00000000E+00  0.00000000E+00  0.00000000E+00
  0.00000000E+00  0.00000000E+00  0.00000000E+00
  0.00000000E+00  0.00000000E+00  0.00000000E+00
  0.00000000E+00  0.00000000E+00  0.00000000E+00
  0.00000000E+00  0.00000000E+00  0.00000000E+00
  0.00000000E+00  0.00000000E+00  0.00000000E+00
  0.00000000E+00  0.00000000E+00  0.00000000E+00
  0.00000000E+00  0.00000000E+00  0.00000000E+00
  0.00000000E+00  0.00000000E+00  0.00000000E+00
  0.00000000E+00  0.00000000E+00  0.00000000E+00
  0.00000000E+00  0.00000000E+00  0.00000000E+00
  0.00000000E+00  0.00000000E+00  0.00000000E+00
  0.00000000E+00  0.00000000E+00  0.00000000E+00
  0.00000000E+00  0.00000000E+00  0.00000000E+00
  0.00000000E+00  0.00000000E+00  0.00000000E+00
  0.00000000E+00  0.00000000E+00  0.00000000E+00
  0.00000000E+00  0.00000000E+00  0.00000000E+00
  0.00000000E+00  0.00000000E+00  0.00000000E+00
  0.00000000E+00  0.00000000E+00  0.00000000E+00
  0.00000000E+00  0.00000000E+00  0.00000000E+00
  0.00000000E+00  0.00000000E+00  0.00000000E+00
  0.00000000E+00  0.00000000E+00  0.00000000E+00
  0.00000000E+00  0.00000000E+00  0.00000000E+00
  0.00000000E+00  0.00000000E+00  0.00000000E+00
  0.00000000E+00  0.00000000E+00  0.00000000E+00
  0.00000000E+00  0.00000000E+00  0.00000000E+00
  0.00000000E+00  0.00000000E+00  0.00000000E+00
  0.00000000E+00  0.00000000E+00  0.00000000E+00
  0.00000000E+00  0.00000000E+00  0.00000000E+00
  0.00000000E+00  0.00000000E+00  0.00000000E+00
  0.00000000E+00  0.00000000E+00  0.00000000E+00
  0.00000000E+00  0.00000000E+00  0.00000000E+00
  0.00000000E+00  0.00000000E+00  0.00000000E+00
  0.00000000E+00  0.00000000E+00  0.00000000E+00
  0.00000000E+00  0.00000000E+00  0.00000000E+00
  0.00000000E+00  0.00000000E+00  0.00000000E+00
  0.00000000E+00  0.00000000E+00  0.00000000E+00
  0.00000000E+00  0.00000000E+00  0.00000000E+00
  0.00000000E+00  0.00000000E+00  0.00000000E+00
  0.00000000E+00  0.00000000E+00  0.00000000E+00
  0.00000000E+00  0.00000000E+00  0.00000000E+00
  0.00000000E+00  0.00000000E+00  0.00000000E+00
  0.00000000E+00  0.00000000E+00  0.00000000E+00
  0.00000000E+00  0.00000000E+00  0.00000000E+00
  0.00000000E+00  0.00000000E+00  0.00000000E+00
  0.00000000E+00  0.00000000E+00  0.00000000E+00
  0.00000000E+00  0.00000000E+00  0.00000000E+00
  0.00000000E+00  0.00000000E+00  0.00000000E+00
  0.00000000E+00  0.00000000E+00  0.00000000E+00
  0.00000000E+00  0.00000000E+00  0.00000000E+00
  0.00000000E+00  0.00000000E+00  0.00000000E+00
  0.00000000E+00  0.00000000E+00  0.00000000E+00
  0.00000000E+00  0.00000000E+00  0.00000000E+00
  0.00000000E+00  0.00000000E+00  0.00000000E+00
  0.00000000E+00  0.00000000E+00  0.00000000E+00
  0.00000000E+00  0.00000000E+00  0.00000000E+00
  0.00000000E+00  0.00000000E+00  0.00000000E+00
  0.00000000E+00  0.00000000E+00  0.00000000E+00
  0.00000000E+00  0.00000000E+00  0.00000000E+00
  0.00000000E+00  0.00000000E+00  0.00000000E+00
  0.00000000E+00  0.00000000E+00  0.00000000E+00
  0.00000000E+00  0.00000000E+00  0.00000000E+00
  0.00000000E+00  0.00000000E+00  0.00000000E+00
  0.00000000E+00  0.00000000E+00  0.00000000E+00
  0.00000000E+00  0.00000000E+00  0.00000000E+00
  0.00000000E+00  0.00000000E+00  0.00000000E+00
  0.00000000E+00  0.00000000E+00  0.00000000E+00
  0.00000000E+00  0.00000000E+00  0.00000000E+00
  0.00000000E+00  0.00000000E+00  0.00000000E+00
  0.00000000E+00  0.00000000E+00  0.00000000E+00
  0.00000000E+00  0.00000000E+00  0.00000000E+00
  0.00000000E+00  0.00000000E+00  0.00000000E+00
  0.00000000E+00  0.00000000E+00  0.00000000E+00
  0.00000000E+00  0.00000000E+00  0.00000000E+00
  0.00000000E+00  0.00000000E+00  0.00000000E+00
  0.00000000E+00  0.00000000E+00  0.00000000E+00
  0.00000000E+00  0.00000000E+00  0.00000000E+00
  0.00000000E+00  0.00000000E+00  0.00000000E+00
  0.00000000E+00  0.00000000E+00  0.00000000E+00
  0.00000000E+00  0.00000000E+00  0.00000000E+00
  0.00000000E+00  0.00000000E+00  0.00000000E+00
  0.00000000E+00  0.00000000E+00  0.00000000E+00
  0.00000000E+00  0.00000000E+00  0.00000000E+00
  0.00000000E+00  0.00000000E+00  0.00000000E+00
  0.00000000E+00  0.00000000E+00  0.00000000E+00
  0.00000000E+00  0.00000000E+00  0.00000000E+00
  0.00000000E+00  0.00000000E+00  0.00000000E+00
  0.00000000E+00  0.00000000E+00  0.00000000E+00
  0.00000000E+00  0.00000000E+00  0.00000000E+00
  0.00000000E+00  0.00000000E+00  0.00000000E+00
  0.00000000E+00  0.00000000E+00  0.00000000E+00
  0.00000000E+00  0.00000000E+00  0.00000000E+00
  0.00000000E+00  0.00000000E+00  0.00000000E+00
  0.00000000E+00  0.00000000E+00  0.00000000E+00
  0.00000000E+00  0.00000000E+00  0.00000000E+00
  0.00000000E+00  0.00000000E+00  0.00000000E+00
  0.00000000E+00  0.00000000E+00  0.00000000E+00
  0.00000000E+00  0.00000000E+00  0.00000000E+00
  0.00000000E+00  0.00000000E+00  0.00000000E+00
  0.00000000E+00  0.00000000E+00  0.00000000E+00
  0.00000000E+00  0.00000000E+00  0.00000000E+00
  0.00000000E+00  0.00000000E+00  0.00000000E+00
  0.00000000E+00  0.00000000E+00  0.00000000E+00
  0.00000000E+00  0.00000000E+00  0.00000000E+00
  0.00000000E+00  0.00000000E+00  0.00000000E+00
  0.00000000E+00  0.00000000E+00  0.00000000E+00
  0.00000000E+00  0.00000000E+00  0.00000000E+00
  0.00000000E+00  0.00000000E+00  0.00000000E+00
  0.00000000E+00  0.00000000E+00  0.00000000E+00
  0.00000000E+00  0.00000000E+00  0.00000000E+00
  0.00000000E+00  0.00000000E+00  0.00000000E+00
  0.00000000E+00  0.00000000E+00  0.00000000E+00
  0.00000000E+00  0.00000000E+00  0.00000000E+00
  0.00000000E+00  0.00000000E+00  0.00000000E+00
  0.00000000E+00  0.00000000E+00  0.00000000E+00
  0.00000000E+00  0.00000000E+00  0.00000000E+00
  0.00000000E+00  0.00000000E+00  0.00000000E+00
  0.00000000E+00  0.00000000E+00  0.00000000E+00
  0.00000000E+00  0.00000000E+00  0.00000000E+00
  0.00000000E+00  0.00000000E+00  0.00000000E+00
  0.00000000E+00  0.00000000E+00  0.00000000E+00
  0.00000000E+00  0.00000000E+00  0.00000000E+00
  0.00000000E+00  0.00000000E+00  0.00000000E+00
  0.00000000E+00  0.00000000E+00  0.00000000E+00
  0.00000000E+00  0.00000000E+00  0.00000000E+00
  0.00000000E+00  0.00000000E+00  0.00000000E+00
  0.00000000E+00  0.00000000E+00  0.00000000E+00
  0.00000000E+00  0.00000000E+00  0.00000000E+00
  0.00000000E+00  0.00000000E+00  0.00000000E+00
  0.00000000E+00  0.00000000E+00  0.00000000E+00
  0.00000000E+00  0.00000000E+00  0.00000000E+00
  0.00000000E+00  0.00000000E+00  0.00000000E+00
  0.00000000E+00  0.00000000E+00  0.00000000E+00
  0.00000000E+00  0.00000000E+00  0.00000000E+00
  0.00000000E+00  0.00000000E+00  0.00000000E+00
  0.00000000E+00  0.00000000E+00  0.00000000E+00
  0.00000000E+00  0.00000000E+00  0.00000000E+00
  0.00000000E+00  0.00000000E+00  0.00000000E+00
  0.00000000E+00  0.00000000E+00  0.00000000E+00
  0.00000000E+00  0.00000000E+00  0.00000000E+00
  0.00000000E+00  0.00000000E+00  0.00000000E+00
  0.00000000E+00  0.00000000E+00  0.00000000E+00
  0.00000000E+00  0.00000000E+00  0.00000000E+00
  0.00000000E+00  0.00000000E+00  0.00000000E+00
  0.00000000E+00  0.00000000E+00  0.00000000E+00
  0.00000000E+00  0.00000000E+00  0.00000000E+00
  0.00000000E+00  0.00000000E+00  0.00000000E+00
  0.00000000E+00  0.00000000E+00  0.00000000E+00
  0.00000000E+00  0.00000000E+00  0.00000000E+00
  0.00000000E+00  0.00000000E+00  0.00000000E+00
  0.00000000E+00  0.00000000E+00  0.00000000E+00
  0.00000000E+00  0.00000000E+00  0.00000000E+00
  0.00000000E+00  0.00000000E+00  0.00000000E+00
  0.00000000E+00  0.00000000E+00  0.00000000E+00
  0.00000000E+00  0.00000000E+00  0.00000000E+00
  0.00000000E+00  0.00000000E+00  0.00000000E+00
  0.00000000E+00  0.00000000E+00  0.00000000E+00
  0.00000000E+00  0.00000000E+00  0.00000000E+00
  0.00000000E+00  0.00000000E+00  0.00000000E+00
  0.00000000E+00  0.00000000E+00  0.00000000E+00
  0.00000000E+00  0.00000000E+00  0.00000000E+00
  0.00000000E+00  0.00000000E+00  0.00000000E+00
  0.00000000E+00  0.00000000E+00  0.00000000E+00
  0.00000000E+00  0.00000000E+00  0.00000000E+00
  0.00000000E+00  0.00000000E+00  0.00000000E+00
  0.00000000E+00  0.00000000E+00  0.00000000E+00
  0.00000000E+00  0.00000000E+00  0.00000000E+00
  0.00000000E+00  0.00000000E+00  0.00000000E+00
  0.00000000E+00  0.00000000E+00  0.00000000E+00
  0.00000000E+00  0.00000000E+00  0.00000000E+00
  0.00000000E+00  0.00000000E+00  0.00000000E+00
  0.00000000E+00  0.00000000E+00  0.00000000E+00
  0.00000000E+00  0.00000000E+00  0.00000000E+00
  0.00000000E+00  0.00000000E+00  0.00000000E+00
