 K Mn  O                                
    1.000000000000000     
     0.0037662250291497   13.5837073023390431    0.3682640377004190
     8.5673816836432213   -0.0029624471364243   -0.0018231758081906
    -0.0027625819472440   -0.1897965667328143  -18.1896241095192650
   K    Mn   O 
     1    72   144
Direct
     0.2607982982391951    0.1672402252450581    0.2463838980028255
     0.3489230552136792    0.9931162305300714    0.3868990620970004
     0.3437431617708501    0.9980060061436953    0.1095423894781280
     0.1571309841073202    0.1667740751614427    0.3945578783629525
     0.1540151352348690    0.1669218615735203    0.1122770680180502
     0.5103713651036149    0.1667228676496002    0.5060646647823657
     0.5001416836502690    0.1661745871883018    0.2521541580247190
     0.8440677180369343    0.1661815607677140    0.3675241331093685
     0.8423967209011027    0.1666989235408187    0.1193172945376905
     0.6609848019128025    0.9984241942619756    0.3797508956519282
     0.6593165616432842    0.9999429812174881    0.1318285847260451
     0.9968791963353801    0.9974296912360744    0.5020354993223168
     0.0051239953141830    0.0001428523402287    0.2476549312522106
     0.3439385602616389    0.0006556506362228    0.8703089739779538
     0.3436207079743213    0.9995131537169042    0.6200951799376144
     0.1604953003367978    0.1666853212114131    0.8791279410120090
     0.1601153691286479    0.1666558615260467    0.6290504308348825
     0.5068237751227829    0.1667494741040126    0.9976580031178827
     0.5000711872444471    0.1672074743623712    0.7499854684905118
     0.8408255836070585    0.1670163106398553    0.8644257826663203
     0.8432122385201746    0.1669069986056927    0.6231520661762711
     0.6607903035746470    0.0004490614385066    0.8765408746912444
     0.6632957486142053    0.0001856478407618    0.6351568063652654
     0.9944985053694909    0.9995686060309077    0.9933332926575614
     0.0039819941317978    0.9999878469540917    0.7497325487506883
     0.3488541021318870    0.3402549634688903    0.3868975577040192
     0.3438213531442920    0.3359947245554869    0.1094669212927509
     0.1597666891305553    0.4994116417138764    0.3834019821466289
     0.1568830857829591    0.5045237986859933    0.1190692745144202
     0.5084704910733014    0.5015513584070298    0.5048363392547977
     0.4971886918483773    0.4981082705972414    0.2506800711549425
     0.8444256556867511    0.4988543339827836    0.3674703503102526
     0.8425743050593403    0.5002333159506558    0.1195124065484912
     0.6610032687924225    0.3336237865135471    0.3798017873256586
     0.6596446795682408    0.3333997319368479    0.1318146971460216
     0.9969801577175571    0.3348278631075175    0.5022151086798012
     0.0051747563348113    0.3322750656642164    0.2474350750152342
     0.3439586333170869    0.3338604082238170    0.8705144502719001
     0.3431906459427463    0.3330250077694100    0.6198662215584825
     0.1606850074050299    0.5008576554277968    0.8792882066681722
     0.1602961590038017    0.5011814695710327    0.6292311424667254
     0.5058599048056711    0.5015229506150609    0.9985926074530133
     0.5000255681466629    0.5000710484044990    0.7500703720597379
     0.8410519815362575    0.5003081793968289    0.8645536931843303
     0.8430010287723585    0.5003421532275329    0.6230224752343458
     0.6609358704876748    0.3338087165101687    0.8766287487443043
     0.6628938982522872    0.3336435946454660    0.6348303852791838
     0.9945217437897030    0.3336896106532145    0.9934681242163700
     0.0045814359180418    0.3331185420399920    0.7497765661715616
     0.3435854317244628    0.6663319649496362    0.3737348499868630
     0.3426173595963621    0.6671507584443143    0.1154346827655801
     0.1600326504241112    0.8338380662572370    0.3834294132358584
     0.1565946701416776    0.8297621719355219    0.1189040524908326
     0.5085629847651484    0.8322342511819598    0.5048333848679655
     0.4972056160636003    0.8342245568214157    0.2507581400477040
     0.8443490254856497    0.8331107215524326    0.3675121568756849
     0.8422847465336434    0.8328177006229791    0.1192745740196397
     0.6606747487740076    0.6660335259320375    0.3793087144342195
     0.6594066328144593    0.6666257748475458    0.1319674719204966
     0.9993717223142558    0.6665003859601857    0.5002039258333956
     0.0061175887080693    0.6662659234181547    0.2479300009937336
     0.3439479530525092    0.6666096979123630    0.8704916585176099
     0.3437723890496873    0.6662129094512040    0.6205719979798323
     0.1606303272768013    0.8337936723840147    0.8791574931400150
     0.1603529193925921    0.8336667432658675    0.6291451313433377
     0.5055160737343507    0.8323083758330774    0.9984801650253031
     0.5000450437319394    0.8331114632664097    0.7500525120903470
     0.8409386269031217    0.8338240662498592    0.8646145721073348
     0.8428873045142983    0.8327920667196242    0.6229029231839242
     0.6610294369295613    0.6670782766739494    0.8766821356135914
     0.6621797466767634    0.6670080688824960    0.6342117413460955
     0.9945501619786410    0.6666590453597699    0.9936759187219131
     0.0045282257563202    0.6670754721130658    0.7498170814681037
     0.0580967813306400    0.1662693721042120    0.4574523316581410
     0.0697167577056438    0.1663652761647668    0.1984248555034478
     0.4318701932941300    0.0023121997121411    0.2987020478862795
     0.4422853782472516    0.9996441670857652    0.0426322766341252
     0.1078940648423561    0.0062579770241279    0.3296909687101880
     0.0943061304943387    0.9973352673528242    0.0676904322824384
     0.4168500032088560    0.1668248952606138    0.4308254676397276
     0.4028997724097390    0.1668201655952384    0.1642958708181330
     0.2265360289691224    0.9866255755442531    0.4406367888033276
     0.2239255857046714    0.9922690760341354    0.1590086993198574
     0.2807554687323364    0.1666490978140285    0.3611373744394036
     0.2741568106983024    0.1666412588308042    0.0607782674868925
     0.5719076516826038    0.9983879367222270    0.4580320287888260
     0.5630159183755287    0.9994844445917900    0.2056848114206484
     0.9417052702558036    0.1663296448814516    0.2941153556043284
     0.9330368521086235    0.1666954778244258    0.0416005907097803
     0.5980066615243438    0.1661228205381019    0.3289338878076150
     0.6002527926793959    0.1666638912057519    0.0789428792517340
     0.9023507092351062    0.9995846322737566    0.4211529636766113
     0.9053406480406438    0.9996463930288716    0.1704950326267823
     0.7311578819296670    0.1659662157179351    0.4258986692119317
     0.7297218945597672    0.1665973706237482    0.1789823362142218
     0.7739948742437092    0.9994629445020782    0.3202312274988476
     0.7719685615277047    0.0002025931403277    0.0730681853696988
     0.0595092593421368    0.1666999280301485    0.9480944510237350
     0.0664082875780255    0.1665112995242624    0.7028355287390313
     0.4374766883786609    0.0003684646487112    0.7963828873147978
     0.4432304921073331    0.9990124174407615    0.5498237640756456
     0.1034168446007638    0.0002385326742548    0.8254686721640558
     0.0988174266233014    0.9994198546408792    0.5772485819283890
     0.4053698091131819    0.1669920644166585    0.9220044597916699
     0.4015943383073076    0.1666692817324920    0.6730963820174922
     0.2287272306997363    0.0002291186474247    0.9276731296018595
     0.2290652879476092    0.0003329049691929    0.6767698349562815
     0.2752993211320443    0.1671969499849784    0.8226543707765140
     0.2750125017561004    0.1664504029338339    0.5714091839047467
     0.5698420119656754    0.9995791480970619    0.9527800473051472
     0.5638925693243515    0.0001126043117060    0.7045833819139005
     0.9403661857590078    0.1667578136685268    0.7952006549055498
     0.9342075327476772    0.1663565080541720    0.5475822309951300
     0.5990642349380898    0.1671741247764285    0.8262555028950682
     0.6059267431508648    0.1665751433455269    0.5828140239635603
     0.8981598283716687    0.0004273769138401    0.9172820924898081
     0.9045479831115855    0.9995174193272216    0.6734982289166809
     0.7298333952360547    0.1669027519816492    0.9237611387579361
     0.7317410016675127    0.1670909501711510    0.6829542826317138
     0.7722392533279157    0.0002497868124726    0.8167623543241250
     0.7741785355016663    0.0000170550753642    0.5757949765759486
     0.0605685726928028    0.4999092434392791    0.4536210115106479
     0.0689988360734151    0.4991136003310463    0.2003144552922169
     0.4318604898646650    0.3304259929694190    0.2986538759632217
     0.4422571852490217    0.3340640371258294    0.0425733743812249
     0.1078366277264475    0.3267067629006081    0.3296392942591405
     0.0945372133191702    0.3363234744686627    0.0676777820900268
     0.4093242849194511    0.5090579222283532    0.4284439004431589
     0.3987057063131358    0.4974178891044828    0.1693209537977543
     0.2264370891791777    0.3466333748079141    0.4405803351390039
     0.2240110327144773    0.3414081764565962    0.1587944565054811
     0.2775441442442316    0.4927220044886190    0.3299033834734517
     0.2748060725792202    0.5060353483798355    0.0627085577911078
     0.5719135860399965    0.3349330319411919    0.4581049920204540
     0.5628760669709575    0.3330594055902073    0.2055652310421688
     0.9426540175000222    0.4983539856737110    0.2947942391252840
     0.9322802786874608    0.4999591022455511    0.0412825557073902
     0.5967794810340441    0.4994930398692790    0.3289547349306759
     0.6007051268694946    0.4999446462443535    0.0788621271413437
     0.9024955760080515    0.3326766044488951    0.4211052483401805
     0.9055306392632534    0.3332773993327139    0.1704628340140148
     0.7313746777165376    0.4995851786300027    0.4258716204126309
     0.7297162427914291    0.4999850352061062    0.1791062253087448
     0.7740564993042240    0.3325953351499120    0.3201504188597496
     0.7721191059511063    0.3330686874011950    0.0730691831872469
     0.0588400190739105    0.5005679358739477    0.9476162930988732
     0.0665373833759117    0.5003450501302884    0.7029810584754461
     0.4374525335709487    0.3335348988604085    0.7964906872313001
     0.4432984907117615    0.3343334993383753    0.5498630128265097
     0.1034505081353904    0.3335729298451321    0.8255844171341739
     0.0990509202521514    0.3340791076668585    0.5771610618783772
     0.4051835324602687    0.5006490760169725    0.9222794938019302
     0.4010429606577156    0.4993444095518117    0.6738113869937208
     0.2286406059061928    0.3338824368157937    0.9276433784772091
     0.2288247841139700    0.3331209209494705    0.6767085892535939
     0.2752466001200778    0.5002638567911076    0.8226842459753064
     0.2753373080691404    0.5006827655161913    0.5719959443028583
     0.5697238697704536    0.3340687409396871    0.9527090258911978
     0.5638239450265741    0.3337103568542347    0.7044872258749239
     0.9407060460238358    0.5001590866276532    0.7953806281935443
     0.9349830935355963    0.5010478511016644    0.5470303761647559
     0.5991136928330395    0.5004226419474531    0.8263780517714445
     0.6044371293117048    0.4998942540458781    0.5817446248231027
     0.8979138483216227    0.3332943269652075    0.9174897999565620
     0.9048657651067172    0.3336977983729294    0.6735080085829741
     0.7298996238378204    0.5003869403958811    0.9239143803463277
     0.7312190745384036    0.5007602788606459    0.6822596308749870
     0.7723008125572646    0.3337211291663273    0.8167929268972181
     0.7741463130203251    0.3334727416899735    0.5757546020581750
     0.0606766955617472    0.8329642199108265    0.4535701971783848
     0.0686429657846495    0.8336572307849821    0.2001860720604446
     0.4329897600930839    0.6662448427036383    0.2962058583387649
     0.4421670695090437    0.6669170638453121    0.0451062082679492
     0.1046214606718539    0.6665551155003904    0.3267161533486579
     0.0938300467200169    0.6666308740102805    0.0693589853009121
     0.4093830068361455    0.8242143143785843    0.4283500965133993
     0.3986066036919398    0.8361481871317040    0.1695863986996879
     0.2287630555979038    0.6665073975458840    0.4309666682427088
     0.2254143274825450    0.6670493094490352    0.1689300461997438
     0.2777104194180533    0.8404067682646085    0.3300297410654677
     0.2748581227141245    0.8279934010973261    0.0627906351755210
     0.5721264618421045    0.6666491835103615    0.4581193419874263
     0.5613432910716584    0.6663266997208332    0.2046537348143313
     0.9425861051543442    0.8339976003813510    0.2948530291373295
     0.9322223410602573    0.8332973105140786    0.0412078916792354
     0.5967657916996734    0.8325676311701420    0.3290136272716677
     0.6005063821924591    0.8333901347565578    0.0789613935375667
     0.9023570262472630    0.6661102283489725    0.4207760825568629
     0.9052299962530814    0.6664238548544510    0.1703211686064722
     0.7313074339071677    0.8324458750169659    0.4258937507585633
     0.7296851596841285    0.8332708366131585    0.1789729172543411
     0.7741892851684513    0.6660649051751257    0.3201031117986843
     0.7719079745887233    0.6664296183987108    0.0729404996297660
     0.0589942500993665    0.8330007343951290    0.9477161027723696
     0.0665630027855128    0.8336670085493811    0.7029798906857715
     0.4373923382887154    0.6666847233994521    0.7964563006478659
     0.4443249010872016    0.6667292637142672    0.5511283122723851
     0.1035403277431294    0.6672042363685449    0.8254635455160229
     0.0996246890387988    0.6671197099255697    0.5768430995381603
     0.4051843407277038    0.8333672689321647    0.9219915294080128
     0.4012823330347070    0.8334657163834547    0.6737636045110282
     0.2285674427576692    0.6670493689129230    0.9276386640003048
     0.2290220766034400    0.6669969890974038    0.6771524055944144
     0.2752909147942949    0.8337309217412973    0.8227223877411687
     0.2754460670438859    0.8326429836078648    0.5720188053203166
     0.5693640914502055    0.6669674540503036    0.9528151752080652
     0.5637096768027702    0.6666833366620077    0.7044186820184011
     0.9404027354873060    0.8334616848250570    0.7952960516786383
     0.9347262074142794    0.8317377397866945    0.5469060651572163
     0.5990525867119190    0.8334087035141978    0.8263299763488673
     0.6046422159116313    0.8340685775020032    0.5818760236851881
     0.8978412005007416    0.6669841450972578    0.9176613237097513
     0.9046666909308576    0.6667202835524468    0.6734955310178538
     0.7298229182516406    0.8337665763017565    0.9238184655148911
     0.7314416111849218    0.8325680225785218    0.6824346367932340
     0.7722768973862337    0.6670043278831860    0.8168459422131469
     0.7738841942038557    0.6666092515264386    0.5753635438413548
 
  0.00000000E+00  0.00000000E+00  0.00000000E+00
  0.00000000E+00  0.00000000E+00  0.00000000E+00
  0.00000000E+00  0.00000000E+00  0.00000000E+00
  0.00000000E+00  0.00000000E+00  0.00000000E+00
  0.00000000E+00  0.00000000E+00  0.00000000E+00
  0.00000000E+00  0.00000000E+00  0.00000000E+00
  0.00000000E+00  0.00000000E+00  0.00000000E+00
  0.00000000E+00  0.00000000E+00  0.00000000E+00
  0.00000000E+00  0.00000000E+00  0.00000000E+00
  0.00000000E+00  0.00000000E+00  0.00000000E+00
  0.00000000E+00  0.00000000E+00  0.00000000E+00
  0.00000000E+00  0.00000000E+00  0.00000000E+00
  0.00000000E+00  0.00000000E+00  0.00000000E+00
  0.00000000E+00  0.00000000E+00  0.00000000E+00
  0.00000000E+00  0.00000000E+00  0.00000000E+00
  0.00000000E+00  0.00000000E+00  0.00000000E+00
  0.00000000E+00  0.00000000E+00  0.00000000E+00
  0.00000000E+00  0.00000000E+00  0.00000000E+00
  0.00000000E+00  0.00000000E+00  0.00000000E+00
  0.00000000E+00  0.00000000E+00  0.00000000E+00
  0.00000000E+00  0.00000000E+00  0.00000000E+00
  0.00000000E+00  0.00000000E+00  0.00000000E+00
  0.00000000E+00  0.00000000E+00  0.00000000E+00
  0.00000000E+00  0.00000000E+00  0.00000000E+00
  0.00000000E+00  0.00000000E+00  0.00000000E+00
  0.00000000E+00  0.00000000E+00  0.00000000E+00
  0.00000000E+00  0.00000000E+00  0.00000000E+00
  0.00000000E+00  0.00000000E+00  0.00000000E+00
  0.00000000E+00  0.00000000E+00  0.00000000E+00
  0.00000000E+00  0.00000000E+00  0.00000000E+00
  0.00000000E+00  0.00000000E+00  0.00000000E+00
  0.00000000E+00  0.00000000E+00  0.00000000E+00
  0.00000000E+00  0.00000000E+00  0.00000000E+00
  0.00000000E+00  0.00000000E+00  0.00000000E+00
  0.00000000E+00  0.00000000E+00  0.00000000E+00
  0.00000000E+00  0.00000000E+00  0.00000000E+00
  0.00000000E+00  0.00000000E+00  0.00000000E+00
  0.00000000E+00  0.00000000E+00  0.00000000E+00
  0.00000000E+00  0.00000000E+00  0.00000000E+00
  0.00000000E+00  0.00000000E+00  0.00000000E+00
  0.00000000E+00  0.00000000E+00  0.00000000E+00
  0.00000000E+00  0.00000000E+00  0.00000000E+00
  0.00000000E+00  0.00000000E+00  0.00000000E+00
  0.00000000E+00  0.00000000E+00  0.00000000E+00
  0.00000000E+00  0.00000000E+00  0.00000000E+00
  0.00000000E+00  0.00000000E+00  0.00000000E+00
  0.00000000E+00  0.00000000E+00  0.00000000E+00
  0.00000000E+00  0.00000000E+00  0.00000000E+00
  0.00000000E+00  0.00000000E+00  0.00000000E+00
  0.00000000E+00  0.00000000E+00  0.00000000E+00
  0.00000000E+00  0.00000000E+00  0.00000000E+00
  0.00000000E+00  0.00000000E+00  0.00000000E+00
  0.00000000E+00  0.00000000E+00  0.00000000E+00
  0.00000000E+00  0.00000000E+00  0.00000000E+00
  0.00000000E+00  0.00000000E+00  0.00000000E+00
  0.00000000E+00  0.00000000E+00  0.00000000E+00
  0.00000000E+00  0.00000000E+00  0.00000000E+00
  0.00000000E+00  0.00000000E+00  0.00000000E+00
  0.00000000E+00  0.00000000E+00  0.00000000E+00
  0.00000000E+00  0.00000000E+00  0.00000000E+00
  0.00000000E+00  0.00000000E+00  0.00000000E+00
  0.00000000E+00  0.00000000E+00  0.00000000E+00
  0.00000000E+00  0.00000000E+00  0.00000000E+00
  0.00000000E+00  0.00000000E+00  0.00000000E+00
  0.00000000E+00  0.00000000E+00  0.00000000E+00
  0.00000000E+00  0.00000000E+00  0.00000000E+00
  0.00000000E+00  0.00000000E+00  0.00000000E+00
  0.00000000E+00  0.00000000E+00  0.00000000E+00
  0.00000000E+00  0.00000000E+00  0.00000000E+00
  0.00000000E+00  0.00000000E+00  0.00000000E+00
  0.00000000E+00  0.00000000E+00  0.00000000E+00
  0.00000000E+00  0.00000000E+00  0.00000000E+00
  0.00000000E+00  0.00000000E+00  0.00000000E+00
  0.00000000E+00  0.00000000E+00  0.00000000E+00
  0.00000000E+00  0.00000000E+00  0.00000000E+00
  0.00000000E+00  0.00000000E+00  0.00000000E+00
  0.00000000E+00  0.00000000E+00  0.00000000E+00
  0.00000000E+00  0.00000000E+00  0.00000000E+00
  0.00000000E+00  0.00000000E+00  0.00000000E+00
  0.00000000E+00  0.00000000E+00  0.00000000E+00
  0.00000000E+00  0.00000000E+00  0.00000000E+00
  0.00000000E+00  0.00000000E+00  0.00000000E+00
  0.00000000E+00  0.00000000E+00  0.00000000E+00
  0.00000000E+00  0.00000000E+00  0.00000000E+00
  0.00000000E+00  0.00000000E+00  0.00000000E+00
  0.00000000E+00  0.00000000E+00  0.00000000E+00
  0.00000000E+00  0.00000000E+00  0.00000000E+00
  0.00000000E+00  0.00000000E+00  0.00000000E+00
  0.00000000E+00  0.00000000E+00  0.00000000E+00
  0.00000000E+00  0.00000000E+00  0.00000000E+00
  0.00000000E+00  0.00000000E+00  0.00000000E+00
  0.00000000E+00  0.00000000E+00  0.00000000E+00
  0.00000000E+00  0.00000000E+00  0.00000000E+00
  0.00000000E+00  0.00000000E+00  0.00000000E+00
  0.00000000E+00  0.00000000E+00  0.00000000E+00
  0.00000000E+00  0.00000000E+00  0.00000000E+00
  0.00000000E+00  0.00000000E+00  0.00000000E+00
  0.00000000E+00  0.00000000E+00  0.00000000E+00
  0.00000000E+00  0.00000000E+00  0.00000000E+00
  0.00000000E+00  0.00000000E+00  0.00000000E+00
  0.00000000E+00  0.00000000E+00  0.00000000E+00
  0.00000000E+00  0.00000000E+00  0.00000000E+00
  0.00000000E+00  0.00000000E+00  0.00000000E+00
  0.00000000E+00  0.00000000E+00  0.00000000E+00
  0.00000000E+00  0.00000000E+00  0.00000000E+00
  0.00000000E+00  0.00000000E+00  0.00000000E+00
  0.00000000E+00  0.00000000E+00  0.00000000E+00
  0.00000000E+00  0.00000000E+00  0.00000000E+00
  0.00000000E+00  0.00000000E+00  0.00000000E+00
  0.00000000E+00  0.00000000E+00  0.00000000E+00
  0.00000000E+00  0.00000000E+00  0.00000000E+00
  0.00000000E+00  0.00000000E+00  0.00000000E+00
  0.00000000E+00  0.00000000E+00  0.00000000E+00
  0.00000000E+00  0.00000000E+00  0.00000000E+00
  0.00000000E+00  0.00000000E+00  0.00000000E+00
  0.00000000E+00  0.00000000E+00  0.00000000E+00
  0.00000000E+00  0.00000000E+00  0.00000000E+00
  0.00000000E+00  0.00000000E+00  0.00000000E+00
  0.00000000E+00  0.00000000E+00  0.00000000E+00
  0.00000000E+00  0.00000000E+00  0.00000000E+00
  0.00000000E+00  0.00000000E+00  0.00000000E+00
  0.00000000E+00  0.00000000E+00  0.00000000E+00
  0.00000000E+00  0.00000000E+00  0.00000000E+00
  0.00000000E+00  0.00000000E+00  0.00000000E+00
  0.00000000E+00  0.00000000E+00  0.00000000E+00
  0.00000000E+00  0.00000000E+00  0.00000000E+00
  0.00000000E+00  0.00000000E+00  0.00000000E+00
  0.00000000E+00  0.00000000E+00  0.00000000E+00
  0.00000000E+00  0.00000000E+00  0.00000000E+00
  0.00000000E+00  0.00000000E+00  0.00000000E+00
  0.00000000E+00  0.00000000E+00  0.00000000E+00
  0.00000000E+00  0.00000000E+00  0.00000000E+00
  0.00000000E+00  0.00000000E+00  0.00000000E+00
  0.00000000E+00  0.00000000E+00  0.00000000E+00
  0.00000000E+00  0.00000000E+00  0.00000000E+00
  0.00000000E+00  0.00000000E+00  0.00000000E+00
  0.00000000E+00  0.00000000E+00  0.00000000E+00
  0.00000000E+00  0.00000000E+00  0.00000000E+00
  0.00000000E+00  0.00000000E+00  0.00000000E+00
  0.00000000E+00  0.00000000E+00  0.00000000E+00
  0.00000000E+00  0.00000000E+00  0.00000000E+00
  0.00000000E+00  0.00000000E+00  0.00000000E+00
  0.00000000E+00  0.00000000E+00  0.00000000E+00
  0.00000000E+00  0.00000000E+00  0.00000000E+00
  0.00000000E+00  0.00000000E+00  0.00000000E+00
  0.00000000E+00  0.00000000E+00  0.00000000E+00
  0.00000000E+00  0.00000000E+00  0.00000000E+00
  0.00000000E+00  0.00000000E+00  0.00000000E+00
  0.00000000E+00  0.00000000E+00  0.00000000E+00
  0.00000000E+00  0.00000000E+00  0.00000000E+00
  0.00000000E+00  0.00000000E+00  0.00000000E+00
  0.00000000E+00  0.00000000E+00  0.00000000E+00
  0.00000000E+00  0.00000000E+00  0.00000000E+00
  0.00000000E+00  0.00000000E+00  0.00000000E+00
  0.00000000E+00  0.00000000E+00  0.00000000E+00
  0.00000000E+00  0.00000000E+00  0.00000000E+00
  0.00000000E+00  0.00000000E+00  0.00000000E+00
  0.00000000E+00  0.00000000E+00  0.00000000E+00
  0.00000000E+00  0.00000000E+00  0.00000000E+00
  0.00000000E+00  0.00000000E+00  0.00000000E+00
  0.00000000E+00  0.00000000E+00  0.00000000E+00
  0.00000000E+00  0.00000000E+00  0.00000000E+00
  0.00000000E+00  0.00000000E+00  0.00000000E+00
  0.00000000E+00  0.00000000E+00  0.00000000E+00
  0.00000000E+00  0.00000000E+00  0.00000000E+00
  0.00000000E+00  0.00000000E+00  0.00000000E+00
  0.00000000E+00  0.00000000E+00  0.00000000E+00
  0.00000000E+00  0.00000000E+00  0.00000000E+00
  0.00000000E+00  0.00000000E+00  0.00000000E+00
  0.00000000E+00  0.00000000E+00  0.00000000E+00
  0.00000000E+00  0.00000000E+00  0.00000000E+00
  0.00000000E+00  0.00000000E+00  0.00000000E+00
  0.00000000E+00  0.00000000E+00  0.00000000E+00
  0.00000000E+00  0.00000000E+00  0.00000000E+00
  0.00000000E+00  0.00000000E+00  0.00000000E+00
  0.00000000E+00  0.00000000E+00  0.00000000E+00
  0.00000000E+00  0.00000000E+00  0.00000000E+00
  0.00000000E+00  0.00000000E+00  0.00000000E+00
  0.00000000E+00  0.00000000E+00  0.00000000E+00
  0.00000000E+00  0.00000000E+00  0.00000000E+00
  0.00000000E+00  0.00000000E+00  0.00000000E+00
  0.00000000E+00  0.00000000E+00  0.00000000E+00
  0.00000000E+00  0.00000000E+00  0.00000000E+00
  0.00000000E+00  0.00000000E+00  0.00000000E+00
  0.00000000E+00  0.00000000E+00  0.00000000E+00
  0.00000000E+00  0.00000000E+00  0.00000000E+00
  0.00000000E+00  0.00000000E+00  0.00000000E+00
  0.00000000E+00  0.00000000E+00  0.00000000E+00
  0.00000000E+00  0.00000000E+00  0.00000000E+00
  0.00000000E+00  0.00000000E+00  0.00000000E+00
  0.00000000E+00  0.00000000E+00  0.00000000E+00
  0.00000000E+00  0.00000000E+00  0.00000000E+00
  0.00000000E+00  0.00000000E+00  0.00000000E+00
  0.00000000E+00  0.00000000E+00  0.00000000E+00
  0.00000000E+00  0.00000000E+00  0.00000000E+00
  0.00000000E+00  0.00000000E+00  0.00000000E+00
  0.00000000E+00  0.00000000E+00  0.00000000E+00
  0.00000000E+00  0.00000000E+00  0.00000000E+00
  0.00000000E+00  0.00000000E+00  0.00000000E+00
  0.00000000E+00  0.00000000E+00  0.00000000E+00
  0.00000000E+00  0.00000000E+00  0.00000000E+00
  0.00000000E+00  0.00000000E+00  0.00000000E+00
  0.00000000E+00  0.00000000E+00  0.00000000E+00
  0.00000000E+00  0.00000000E+00  0.00000000E+00
  0.00000000E+00  0.00000000E+00  0.00000000E+00
  0.00000000E+00  0.00000000E+00  0.00000000E+00
  0.00000000E+00  0.00000000E+00  0.00000000E+00
  0.00000000E+00  0.00000000E+00  0.00000000E+00
  0.00000000E+00  0.00000000E+00  0.00000000E+00
  0.00000000E+00  0.00000000E+00  0.00000000E+00
  0.00000000E+00  0.00000000E+00  0.00000000E+00
  0.00000000E+00  0.00000000E+00  0.00000000E+00
  0.00000000E+00  0.00000000E+00  0.00000000E+00
  0.00000000E+00  0.00000000E+00  0.00000000E+00
  0.00000000E+00  0.00000000E+00  0.00000000E+00
  0.00000000E+00  0.00000000E+00  0.00000000E+00
  0.00000000E+00  0.00000000E+00  0.00000000E+00
